%%%%%%%%%%%%%%%%%%%%%%%%%%%%%%%%%%%%%%%%%%%%%%%%%%%
%%%  Read in Molecule Graph information as MolFile
%%%%%%%%%%%%%%%%%%%%%%%%%%%%%%%%%%%%%%%%%%%%%%%%%%%
Mol
Parameters
RootMolName
Input
StandardMeta
Quit
Quit
MetaAtoms
Read
Quit
Quit
%%%%%%%%%%%%%%%%%%%%%%%%%%%%%%%%%%%%%%%%%%%%%%%%%%%
%%% Open up the data base
%%%%%%%%%%%%%%%%%%%%%%%%%%%%%%%%%%%%%%%%%%%%%%%%%%%
CreateOpenClose
Initialize
Quit
%%%%%%%%%%%%%%%%%%%%%%%%%%%%%%%%%%%%%%%%%%%%%%%%%%%
%%% Read SDF into Mol and perform calculations
%%%%%%%%%%%%%%%%%%%%%%%%%%%%%%%%%%%%%%%%%%%%%%%%%%%
Mol
Parameters
MolOutName
Input
YYYYY
Quit
RootMolName
Input
XXXXX
Quit
MolDirectory
Input
.
Quit
Quit
Read
Molecules
SDF
Quit
Quit
Calculations
Molecules
SemiEmpirical
Quit
Quit
Output
Molecules
Print
Quit
Quit
Quit

%%%%%%%%%%%%%%%%%%%%%%%%%%%%%%%%%%%%%%%%%%%%%%%%%%%
%%% ExistenceCheck Molecules in Database
%%%%%%%%%%%%%%%%%%%%%%%%%%%%%%%%%%%%%%%%%%%%%%%%%%%
DbaseOps
Molecules
Current
ExistenceCheck
Quit
Quit
Quit

%%%%%%%%%%%%%%%%%%%%%%%%%%%%%%%%%%%%%%%%%%%%%%%%%%%
%%% leave
%%%%%%%%%%%%%%%%%%%%%%%%%%%%%%%%%%%%%%%%%%%%%%%%%%%
Quit
Quit
Quit
