%%%%%%%%%%%%%%%%%%%%%%%%%%%%%%%%%%%%%%%%%%%%%%%%%%%
%%%  Read in SubStructure Graph information as MolFile
%%%%%%%%%%%%%%%%%%%%%%%%%%%%%%%%%%%%%%%%%%%%%%%%%%%
Mol
Parameters
RootMolName
Input
StandardMeta
Quit
Quit
MetaAtoms
Read
Quit
Quit

%%%%%%%%%%%%%%%%%%%%%%%%%%%%%%%%%%%%%%%%%%%%%%%%%%%
%%% Open up the data base
%%%%%%%%%%%%%%%%%%%%%%%%%%%%%%%%%%%%%%%%%%%%%%%%%%%
CreateOpenClose
Initialize
Quit
%%%%%%%%%%%%%%%%%%%%%%%%%%%%%%%%%%%%%%%%%%%%%%%%%%%
%%% 
%%%%%%%%%%%%%%%%%%%%%%%%%%%%%%%%%%%%%%%%%%%%%%%%%%%
Mol
Parameters
RootMolName
Input
XXXXX
Quit
MolDirectory
Input
.
Quit
Quit
Read
SubStructures
SDF
Quit
Quit
Calculations
SubStructures
SemiEmpirical
Quit
Quit
Output
SubStructures
Print
Quit
Quit
Quit
Help
%%%%%%%%%%%%%%%%%%%%%%%%%%%%%%%%%%%%%%%%%%%%%%%%%%%
%%% ExistenceCheck Substructures in Database
%%%%%%%%%%%%%%%%%%%%%%%%%%%%%%%%%%%%%%%%%%%%%%%%%%%
DbaseOps
Help
SubStructures
Current
ExistenceCheck
Quit
Quit
Quit
%%%%%%%%%%%%%%%%%%%%%%%%%%%%%%%%%%%%%%%%%%%%%%%%%%%
%%% leave
%%%%%%%%%%%%%%%%%%%%%%%%%%%%%%%%%%%%%%%%%%%%%%%%%%%
Quit
Quit
Quit
