%%%%%%%%%%%%%%%%%%%%%%%%%%%%%%%%%%%%%%%%%%%%%%%%%%%
%%%  Read in Molecule Graph information as MolFile
%%%%%%%%%%%%%%%%%%%%%%%%%%%%%%%%%%%%%%%%%%%%%%%%%%%
Mol
Parameters
RootMolName
Input
StandardMeta
Quit
Quit
MetaAtoms
Read
Quit
Quit

%%%%%%%%%%%%%%%%%%%%%%%%%%%%%%%%%%%%%%%%%%%%%%%%%%%
%%% Read SDF into Mol and perform calculations
%%%%%%%%%%%%%%%%%%%%%%%%%%%%%%%%%%%%%%%%%%%%%%%%%%%
Mol
Parameters
MolOutName
Input
YYYYY
Quit
RootMolName
Input
XXXXX
Quit
MolDirectory
Input
.
Quit
Quit
Read
Molecules
SDF
Quit
Quit
Calculations
Molecules
SemiEmpirical
Quit
Quit
Output
Molecules
Print
Quit
Quit
Quit

%%%%%%%%%%%%%%%%%%%%%%%%%%%%%%%%%%%%%%%%%%%%%%%%%%%
%%% Store in Database & update keys
%%%%%%%%%%%%%%%%%%%%%%%%%%%%%%%%%%%%%%%%%%%%%%%%%%%
CreateOpenClose
Initialize
Quit
Mol
Parameters
MolOutName
Input
YYYYY
Quit
RootMolName
Input
XXXXX
Quit
MolDirectory
Input
.
Quit
Quit
Read
Molecules
SDF
Quit
Quit
Calculations
Molecules
SemiEmpirical
Quit
Quit
Output
Molecules
Print
Quit
Quit
Quit
DbaseOps
Molecules
Current
Store
Quit
Quit
Quit

Mol
Output
Molecules
Print
Quit
Quit
Graph
PrintGraph
Quit
Quit
Quit

%%%%%%%%%%%%%%%%%%%%%%%%%%%%%%%%%%%%%%%%%%%%%%%%%%%
%%% leave
%%%%%%%%%%%%%%%%%%%%%%%%%%%%%%%%%%%%%%%%%%%%%%%%%%%
Quit
