%%%%%%%%%%%%%%%%%%%%%%%%%%%%%%%%%%%%%%%%%%%%%%%%%%%
%%%  Read MetaAtoms
%%%%%%%%%%%%%%%%%%%%%%%%%%%%%%%%%%%%%%%%%%%%%%%%%%%
Mol
Parameters
RootMolName
Input
StandardMeta
Quit
Quit
MetaAtoms
Read
Quit
Quit

%%%%%%%%%%%%%%%%%%%%%%%%%%%%%%%%%%%%%%%%%%%%%%%%%%%
%%% Open database connection
%%%%%%%%%%%%%%%%%%%%%%%%%%%%%%%%%%%%%%%%%%%%%%%%%%%
CreateOpenClose
Start
Quit

%%%%%%%%%%%%%%%%%%%%%%%%%%%%%%%%%%%%%%%%%%%%%%%%%%%
%%% Read MolFile Reaction Patterns & Print Output
%%%%%%%%%%%%%%%%%%%%%%%%%%%%%%%%%%%%%%%%%%%%%%%%%%%
Rxn
Parameters
RootRxnName
Input
XXXXX
Quit
RxnDirectory
Input
.
Quit
RxnOutName
Input
XXXXX
Quit
RxnOutDir
Input
.
Quit
Quit
Read
RxnPatterns
MolFiles
Quit
Quit
Output
RxnPatterns
Print
Quit
Quit
Quit
Quit
Quit
Quit
