%%%%%%%%%%%%%%%%%%%%%%%%%%%%%%%%%%%%%%%%%%%%%%%%%%%
%%%  Read in SubStructure Graph information as MolFile
%%%%%%%%%%%%%%%%%%%%%%%%%%%%%%%%%%%%%%%%%%%%%%%%%%%
Mol
Parameters
RootMolName
Input
StandardMeta
Quit
Quit
MetaAtoms
Read
Quit
Quit
%%%%%%%%%%%%%%%%%%%%%%%%%%%%%%%%%%%%%%%%%%%%%%%%%%%
%%% 
%%%%%%%%%%%%%%%%%%%%%%%%%%%%%%%%%%%%%%%%%%%%%%%%%%%
Mol
Parameters
RootMolName
Input
XXXXX
Quit
MolDirectory
Input
.
Quit
Quit
Read
SubStructures
SDF
Quit
Quit
Calculations
SubStructures
SemiEmpirical
Quit
Quit
Output
SubStructures
Print
Quit
Quit
%%%%%%%%%%%%%%%%%%%%%%%%%%%%%%%%%%%%%%%%%%%%%%%%%%%
%%% leave
%%%%%%%%%%%%%%%%%%%%%%%%%%%%%%%%%%%%%%%%%%%%%%%%%%%
Quit
Quit
Quit






